min: 591 x1 + 321 x2 + 683 x3 + 411 x4 + 283 x5 + 662 x6 + 725 x7 + 983 x8 + 848 x9 + 310 x10 + 424 x11 + 527 x12 + 331 x13 + 285 x14 + 963 x15;

r1: x15 + x3 + x10 + x2 + x8 >= 1;
r2: x12 + x13 + x15 + x6 >= 1;
r3: x11 + x4 + x7 >= 1;
r4: x9 >= 1;
r5: x1 + x5 + x6 + x2 >= 1;
r6: x8 + x3 + x4 + x13 + x1 + x6 >= 1;
r7: x7 + x13 + x15 >= 1;
r8: x4 + x10 >= 1;
r9: x14 + x9 + x6 + x7 >= 1;
r10: x10 + x2 >= 1;
r11: x11 + x9 + x8 + x7 >= 1;
r12: x8 + x12 + x3 >= 1;
r13: x1 + x13 + x7 + x3 + x4 >= 1;
r14: x6 + x10 + x9 + x4 + x2 + x12 >= 1;
r15: x4 + x6 + x14 >= 1;
r16: x5 + x8 + x6 + x11 >= 1;
r17: x1 + x8 >= 1;
r18: x15 + x14 + x4 + x6 + x3 + x13 >= 1;
r19: x11 >= 1;
r20: x9 + x14 + x1 + x15 >= 1;
r21: x5 + x10 + x13 + x7 + x9 >= 1;
r22: x2 + x4 + x10 + x5 >= 1;
r23: x3 + x6 + x11 + x2 + x5 + x1 >= 1;
r24: x12 + x2 + x1 + x15 + x9 >= 1;
r25: x4 >= 1;
r26: x2 + x1 + x11 + x15 >= 1;
r27: x10 + x1 + x5 >= 1;
r28: x11 + x1 + x6 + x2 + x8 >= 1;
r29: x4 + x15 + x2 + x3 + x14 >= 1;
r30: x11 + x15 + x8 >= 1;
r31: x14 + x13 >= 1;
r32: x12 + x11 + x7 >= 1;
r33: x9 >= 1;
r34: x10 >= 1;
r35: x12 + x1 + x4 + x6 + x5 >= 1;
r36: x5 + x2 + x1 + x12 + x4 + x9 >= 1;
r37: x8 + x14 + x9 + x11 + x6 + x15 >= 1;
r38: x12 + x11 + x4 >= 1;
r39: x12 + x9 + x2 >= 1;
r40: x4 + x15 + x9 + x12 + x5 + x14 >= 1;
r41: x9 + x15 + x11 >= 1;
r42: x10 + x6 >= 1;
r43: x15 + x14 + x6 >= 1;
r44: x14 >= 1;
r45: x12 + x14 + x7 + x15 + x4 >= 1;
r46: x4 + x12 >= 1;
r47: x12 + x10 + x7 >= 1;
r48: x1 >= 1;
r49: x11 + x9 + x7 + x1 + x6 >= 1;
r50: x5 + x13 + x4 + x3 >= 1;

bin x1, x2, x3, x4, x5, x6, x7, x8, x9, x10, x11, x12, x13, x14, x15;
